problems/csplib-prob056/sonet-models/noch/O2/lingeling/model_2_1-s3ring04-solution000001.solution
language Essence 1.3

letting network be
        mset({}, {1, 2, 5, 6, 12}, {3, 4, 6, 8, 13}, {3, 4, 6, 8, 13}, {3, 5, 9, 10, 12}, {7, 8, 9, 13},
             {8, 10, 11, 12, 13})
$ Here is a simple "visualisation" for the value above.
$ 
$  1  2  5  6 12
$  3  4  6  8 13
$  3  4  6  8 13
$  3  5  9 10 12
$  7  8  9 13
$  8 10 11 12 13

